c 107_win_checker.cnf
c
c field = 107
c formula set type = win_checker
c
p cnf 5 38
210 
214 
216 
218 
-220 
211 
215 
217 
219 
-221 
214 
216 
218 
220 
-210 
215 
217 
219 
221 
-211 
214 
216 
218 
220 
-222 
215 
217 
219 
221 
-223 
92 
122 
152 
182 
-62 
93 
123 
153 
183 
-63 
92 
122 
152 
182 
-242 
93 
123 
153 
183 
-243 
122 
152 
182 
242 
-92 
123 
153 
183 
243 
-93 
122 
152 
182 
242 
-272 
123 
153 
183 
243 
-273 
152 
182 
242 
272 
-122 
153 
183 
243 
273 
-123 
152 
182 
242 
272 
-302 
153 
183 
243 
273 
-303 
182 
242 
272 
302 
-152 
183 
243 
273 
303 
-153 
182 
242 
272 
302 
-332 
183 
243 
273 
303 
-333 
242 
272 
302 
332 
-182 
243 
273 
303 
333 
-183 
242 
272 
302 
332 
-362 
243 
273 
303 
333 
-363 
180 
244 
276 
308 
-340 
181 
245 
277 
309 
-341 
244 
276 
308 
340 
-180 
245 
277 
309 
341 
-181 
244 
276 
308 
340 
-372 
245 
277 
309 
341 
-373 
100 
128 
156 
184 
-72 
101 
129 
157 
185 
-73 
100 
128 
156 
184 
-240 
101 
129 
157 
185 
-241 
128 
156 
184 
240 
-100 
129 
157 
185 
241 
-101 
